42317.8
42317.8
41178.1
41141.2
41141.2
40694.8
40691.8
40501
39961.8
39961.8
38877
38877
38877
38642.4
38642.4
38642.4
38597.3
38597.3
38597.3
38597.3
38597.3
38468.7
37578.7
37561.6
37425.2
37425.2
37425.2
36436
36436
36436
36436
36436
36436
36398.9
36149.5
36149.5
34012.5
34012.5
34012.5
34012.5
34012.5
34012.5
34012.5
34012.5
34012.5
33785.3
33785.3
33785.3
32962.8
32962.8
32962.8
32962.8
32962.8
32962.8
32962.8
32962.8
32962.8
32296.4
32296.4
32296.4
32296.4
32296.4
32296.4
32291.1
32291.1
32291.1
32291.1
32109.1
32109.1
32109.1
32109.1
32109.1
31478.5
31478.5
31478.5
31478.5
31353
31353
31327.9
31269.8
31269.8
31076.2
30914.8
30779.8
30365.9
30365.9
30365.9
30365.9
30344.6
29983.1
29750.3
29750.3
29750.3
29596.7
29596.7
29323.1
29323.1
29323.1
29323.1
29323.1
